p cnf 296 216
d 0.875 0.125
d 0.875 0.125
d 0.875 0.125
d 0.875 0.125
d 0.875 0.125
d 0.875 0.125
d 0.875 0.125
d 0.875 0.125
d 0.875 0.125
d 0.875 0.125
d 0.875 0.125
d 0.875 0.125
d 0.875 0.125
d 0.875 0.125
d 0.875 0.125
d 0.875 0.125
d 0.875 0.125
d 0.875 0.125
d 0.875 0.125
d 0.875 0.125
d 0.875 0.125
d 0.875 0.125
d 0.875 0.125
d 0.875 0.125
d 0.875 0.125
d 0.875 0.125
d 0.875 0.125
d 0.875 0.125
d 0.875 0.125
d 0.875 0.125
d 0.875 0.125
d 0.875 0.125
d 0.875 0.125
d 0.875 0.125
d 0.875 0.125
d 0.875 0.125
d 0.875 0.125
d 0.875 0.125
d 0.875 0.125
d 0.875 0.125
d 0.875 0.125
d 0.875 0.125
d 0.875 0.125
d 0.875 0.125
d 0.875 0.125
d 0.875 0.125
d 0.875 0.125
d 0.875 0.125
d 0.875 0.125
d 0.875 0.125
d 0.875 0.125
d 0.875 0.125
d 0.875 0.125
d 0.875 0.125
d 0.875 0.125
d 0.875 0.125
d 0.875 0.125
d 0.875 0.125
d 0.875 0.125
d 0.875 0.125
d 0.875 0.125
d 0.875 0.125
d 0.875 0.125
d 0.875 0.125
d 0.875 0.125
d 0.875 0.125
d 0.875 0.125
d 0.875 0.125
d 0.875 0.125
d 0.875 0.125
d 0.875 0.125
d 0.875 0.125
d 0.875 0.125
d 0.875 0.125
d 0.875 0.125
d 0.875 0.125
d 0.875 0.125
d 0.875 0.125
d 0.875 0.125
d 0.875 0.125
d 0.875 0.125
d 0.875 0.125
d 0.875 0.125
d 0.875 0.125
d 0.875 0.125
d 0.875 0.125
d 0.875 0.125
d 0.875 0.125
d 0.875 0.125
d 0.875 0.125
d 0.875 0.125
d 0.875 0.125
d 0.875 0.125
d 0.875 0.125
d 0.875 0.125
d 0.875 0.125
d 0.875 0.125
d 0.875 0.125
d 0.875 0.125
d 0.875 0.125
d 0.875 0.125
d 0.875 0.125
d 0.875 0.125
d 0.875 0.125
d 0.875 0.125
d 0.875 0.125
d 0.875 0.125
217
-246
250 -263 -0
263 -250 -0
282 -227 -2
227 -282 -2
229 -230 -4
230 -229 -4
224 -280 -6
280 -224 -6
243 -223 -8
223 -243 -8
254 -223 -10
223 -254 -10
239 -214 -12
214 -239 -12
279 -214 -14
214 -279 -14
247 -294 -16
294 -247 -16
251 -224 -18
224 -251 -18
276 -278 -20
278 -276 -20
244 -222 -22
222 -244 -22
255 -263 -24
263 -255 -24
222 -293 -26
293 -222 -26
239 -272 -28
272 -239 -28
221 -273 -30
273 -221 -30
248 -291 -32
291 -248 -32
228 -239 -34
239 -228 -34
287 -294 -36
294 -287 -36
283 -250 -38
250 -283 -38
269 -245 -40
245 -269 -40
215 -293 -42
293 -215 -42
221 -272 -44
272 -221 -44
288 -252 -46
252 -288 -46
215 -292 -48
292 -215 -48
238 -232 -50
232 -238 -50
260 -262 -52
262 -260 -52
266 -231 -54
231 -266 -54
274 -285 -56
285 -274 -56
225 -246 -58
246 -225 -58
237 -227 -60
227 -237 -60
253 -238 -62
238 -253 -62
282 -237 -64
237 -282 -64
264 -278 -66
278 -264 -66
291 -216 -68
216 -291 -68
248 -291 -70
291 -248 -70
279 -214 -72
214 -279 -72
248 -291 -74
291 -248 -74
291 -216 -76
216 -291 -76
251 -240 -78
240 -251 -78
258 -280 -80
280 -258 -80
259 -273 -82
273 -259 -82
219 -286 -84
286 -219 -84
278 -293 -86
293 -278 -86
229 -230 -88
230 -229 -88
229 -244 -90
244 -229 -90
222 -257 -92
257 -222 -92
228 -239 -94
239 -228 -94
245 -272 -96
272 -245 -96
276 -278 -98
278 -276 -98
279 -271 -100
271 -279 -100
270 -235 -102
235 -270 -102
275 -229 -104
229 -275 -104
239 -214 -106
214 -239 -106
223 -273 -108
273 -223 -108
228 -214 -110
214 -228 -110
290 -268 -112
268 -290 -112
226 -288 -114
288 -226 -114
242 -233 -116
233 -242 -116
294 -295 -118
295 -294 -118
249 -272 -120
272 -249 -120
287 -249 -122
249 -287 -122
217 -260 -124
260 -217 -124
283 -220 -126
220 -283 -126
276 -278 -128
278 -276 -128
279 -214 -130
214 -279 -130
267 -280 -132
280 -267 -132
257 -222 -134
222 -257 -134
236 -268 -136
268 -236 -136
236 -237 -138
237 -236 -138
226 -220 -140
220 -226 -140
248 -282 -142
282 -248 -142
232 -255 -144
255 -232 -144
282 -262 -146
262 -282 -146
290 -285 -148
285 -290 -148
275 -217 -150
217 -275 -150
256 -242 -152
242 -256 -152
256 -230 -154
230 -256 -154
261 -246 -156
246 -261 -156
271 -234 -158
234 -271 -158
290 -268 -160
268 -290 -160
258 -228 -162
228 -258 -162
279 -214 -164
214 -279 -164
264 -265 -166
265 -264 -166
269 -286 -168
286 -269 -168
281 -288 -170
288 -281 -170
279 -214 -172
214 -279 -172
219 -225 -174
225 -219 -174
248 -291 -176
291 -248 -176
276 -278 -178
278 -276 -178
273 -235 -180
235 -273 -180
226 -252 -182
252 -226 -182
261 -223 -184
223 -261 -184
287 -247 -186
247 -287 -186
241 -281 -188
281 -241 -188
239 -214 -190
214 -239 -190
279 -228 -192
228 -279 -192
277 -265 -194
265 -277 -194
274 -216 -196
216 -274 -196
258 -224 -198
224 -258 -198
289 -240 -200
240 -289 -200
276 -278 -202
278 -276 -202
276 -278 -204
278 -276 -204
253 -231 -206
231 -253 -206
234 -277 -208
277 -234 -208
271 -265 -210
265 -271 -210
282 -266 -212
266 -282 -212